generated by lammpkits
1.0
3.185926 0.0 0.0
-1.592963 2.759093 0.0
0.0 0.0 5.220766
Mg
2
Direct
0.33282662 0.66632871 0.25274615
0.66615994 0.33299535 0.75274615
